Cd1 Cl2
1.0
3.689604 0.000000 0.000000
-1.844801 3.195290 0.000000
0.000000 0.000000 20.000000
Cd Cl
1 2
direct
0.000000 0.000000 0.500000 Cd
0.666667 0.333333 0.581902 Cl
0.666667 0.333333 0.418098 Cl
